objective value:                                    0
delta[1,58]*                                       10 	(obj:0)
delta[0,63]*                                       10 	(obj:0)
mu[0,63,178]*                        2.86094987682264 	(obj:0)
mu[0,63,186]*                       0.351835571356038 	(obj:0)
mu[0,63,227]*                       0.309443979193289 	(obj:0)
mu[0,63,239]*                        1.29377467608187 	(obj:0)
mu[1,58,251]*                        9.87449781036518 	(obj:0)
mu[0,63,262]*                        2.15839815647364 	(obj:0)
mu[0,63,275]*                       0.817315852013172 	(obj:0)
mu[0,63,281]*                       0.642224828616048 	(obj:0)
mu[0,63,286]*                        1.20105247755785 	(obj:0)
mu[0,63,292]*                       0.365004581885457 	(obj:0)
mu[1,58,302]*                       0.125502189634823 	(obj:0)
